75 75
69 8
11 35
57 28
29 8
71 15
3 27
74 25
48 20
65 19
22 19
28 17
4 4
63 12
24 5
38 7
68 9
6 25
39 1
34 37
26 31
33 33
31 30
47 13
13 18
27 26
59 38
16 2
12 32
61 23
67 16
10 4
50 17
73 32
46 13
64 36
53 11
62 36
2 3
20 21
7 18
1 34
37 1
18 22
51 15
49 31
56 14
70 10
45 3
15 11
36 22
35 24
19 9
43 34
5 5
30 16
25 28
54 29
44 12
52 20
55 10
40 33
23 21
21 2
32 35
60 26
9 29
42 6
17 6
41 23
58 7
72 37
14 24
66 30
75 27
8 14
